
Gurobi 9.5.0 (linux64) logging started Wed Nov 15 11:40:44 2023

Set parameter LogFile to value "/lustre1/scratch/348/vsc34888/JointResearch/05.Models/06.Benchmarking/D.Representative_days_based_on_RES_and_Demand/RTS24_mod1_ByStages_nc10/openStarNet_RTS24_mod1_ByStages_nc10.log"
Set parameter Method to value 2
Set parameter MIPFocus to value 1
Set parameter Presolve to value 2
Set parameter RINS to value 100
Set parameter MIPGap to value 0.01
Set parameter Threads to value 36
Set parameter TimeLimit to value 604800
Set parameter IterationLimit to value 760000000
Gurobi Optimizer version 9.5.0 build v9.5.0rc5 (linux64)
Thread count: 36 physical cores, 36 logical processors, using up to 36 threads
Optimize a model with 4264 rows, 2725 columns and 10570 nonzeros
Model fingerprint: 0xdf5dabc3
Variable types: 2709 continuous, 16 integer (16 binary)
Coefficient statistics:
  Matrix range     [1e-02, 4e+03]
  Objective range  [1e+00, 1e+00]
  Bounds range     [3e-04, 2e+00]
  RHS range        [3e-04, 1e+00]
Presolve removed 2801 rows and 1376 columns
Presolve time: 0.01s
Presolved: 1463 rows, 1349 columns, 5155 nonzeros
Variable types: 1333 continuous, 16 integer (16 binary)
Found heuristic solution: objective 221.2675921
Root relaxation presolved: 1463 rows, 1349 columns, 5155 nonzeros

Root barrier log...

Ordering time: 0.01s

Barrier statistics:
 AA' NZ     : 2.156e+04
 Factor NZ  : 1.211e+05 (roughly 2 MB of memory)
 Factor Ops : 1.620e+07 (less than 1 second per iteration)
 Threads    : 36

                  Objective                Residual
Iter       Primal          Dual         Primal    Dual     Compl     Time
   0   7.27660745e+05 -9.34405525e+07  5.86e+00 7.50e+02  6.09e+04     0s
   1   4.48846528e+04 -1.90684978e+07  2.57e-01 2.71e-10  6.26e+03     0s
   2   2.13096672e+04 -1.43606468e+06  4.33e-02 8.09e-11  4.39e+02     0s
   3   1.26030945e+04 -1.41959758e+05  1.50e-03 5.77e-11  4.36e+01     0s
   4   3.69052830e+03 -2.03546014e+04  1.23e-04 1.46e-11  6.76e+00     0s
   5   7.44468897e+02 -5.46385275e+03  1.19e-05 1.09e-11  1.75e+00     0s
   6   3.85464728e+02 -1.75465173e+03  1.08e-06 1.46e-11  6.02e-01     0s
   7   2.63081809e+02 -5.43913885e+02  3.45e-07 7.28e-12  2.27e-01     0s
   8   1.64010280e+02 -1.71633060e+02  7.98e-08 7.28e-12  9.44e-02     0s
   9   1.26499947e+02 -1.09085429e+01  3.38e-08 7.28e-12  3.86e-02     0s
  10   1.02124719e+02  6.26009862e+01  9.41e-09 3.64e-12  1.11e-02     0s
  11   9.62939543e+01  7.76596827e+01  4.56e-09 1.46e-11  5.24e-03     0s
  12   9.20432823e+01  8.64170511e+01  9.49e-10 1.46e-11  1.58e-03     0s
  13   9.09088916e+01  9.00357553e+01  2.17e-10 3.64e-12  2.46e-04     0s
  14   9.06381268e+01  9.03242141e+01  4.47e-11 7.28e-12  8.83e-05     0s
  15   9.05461477e+01  9.04665380e+01  5.82e-12 3.64e-12  2.24e-05     0s
  16   9.05374316e+01  9.05319749e+01  7.79e-12 1.46e-11  1.53e-06     0s
  17   9.05361002e+01  9.05360751e+01  3.53e-12 3.64e-12  7.06e-09     0s
  18   9.05360900e+01  9.05360900e+01  5.16e-12 7.28e-12  7.06e-12     0s

Barrier solved model in 18 iterations and 0.25 seconds (0.05 work units)
Optimal objective 9.05360900e+01


Root relaxation: objective 9.053609e+01, 155 iterations, 0.22 seconds (0.03 work units)

    Nodes    |    Current Node    |     Objective Bounds      |     Work
 Expl Unexpl |  Obj  Depth IntInf | Incumbent    BestBd   Gap | It/Node Time

     0     0   90.53609    0   12  221.26759   90.53609  59.1%     -    0s
H    0     0                     122.1432240   90.53609  25.9%     -    0s
     0     0   96.60634    0   11  122.14322   96.60634  20.9%     -    0s
H    0     0                     108.8354578   96.60634  11.2%     -    0s
     0     0   96.98461    0   10  108.83546   96.98461  10.9%     -    0s
     0     0   97.77707    0   10  108.83546   97.77707  10.2%     -    0s
     0     0   97.77707    0   10  108.83546   97.77707  10.2%     -    0s
     0     0  100.56236    0    9  108.83546  100.56236  7.60%     -    0s
     0     0  102.12265    0   10  108.83546  102.12265  6.17%     -    0s
     0     0  102.24215    0   10  108.83546  102.24215  6.06%     -    0s
     0     0  103.10042    0   10  108.83546  103.10042  5.27%     -    0s
     0     0  103.63798    0   10  108.83546  103.63798  4.78%     -    0s
     0     0  104.58662    0   10  108.83546  104.58662  3.90%     -    0s
     0     2  104.58662    0   10  108.83546  104.58662  3.90%     -    0s

Cutting planes:
  Gomory: 8
  Implied bound: 10
  MIR: 46

Explored 24 nodes (782 simplex iterations) in 0.69 seconds (0.37 work units)
Thread count was 36 (of 36 available processors)

Solution count 3: 108.835 122.143 221.268 

Optimal solution found (tolerance 1.00e-02)
Best objective 1.088354578431e+02, best bound 1.083687384402e+02, gap 0.4288%

Gurobi 9.5.0 (linux64) logging started Wed Nov 15 11:40:45 2023

Set parameter LogFile to value "/lustre1/scratch/348/vsc34888/JointResearch/05.Models/06.Benchmarking/D.Representative_days_based_on_RES_and_Demand/RTS24_mod1_ByStages_nc10/openStarNet_RTS24_mod1_ByStages_nc10.log"
Set parameter Method to value 2
Set parameter MIPFocus to value 1
Set parameter Presolve to value 2
Set parameter RINS to value 100
Set parameter MIPGap to value 0.01
Set parameter Threads to value 36
Set parameter TimeLimit to value 604800
Set parameter IterationLimit to value 760000000
No parameters matching 'relax_integrality' found
Gurobi Optimizer version 9.5.0 build v9.5.0rc5 (linux64)
Thread count: 36 physical cores, 36 logical processors, using up to 36 threads
Optimize a model with 4264 rows, 2709 columns and 9850 nonzeros
Model fingerprint: 0xe3be446b
Coefficient statistics:
  Matrix range     [1e-02, 4e+03]
  Objective range  [1e+00, 1e+00]
  Bounds range     [3e-04, 2e+00]
  RHS range        [3e-04, 3e+01]
Presolve removed 3252 rows and 1200 columns
Presolve time: 0.00s
Presolved: 1012 rows, 1520 columns, 3775 nonzeros

Ordering time: 0.00s

Barrier statistics:
 AA' NZ     : 2.615e+03
 Factor NZ  : 1.088e+04 (roughly 1 MB of memory)
 Factor Ops : 1.631e+05 (less than 1 second per iteration)
 Threads    : 1

                  Objective                Residual
Iter       Primal          Dual         Primal    Dual     Compl     Time
   0   5.58016027e+05 -8.86140110e+07  4.30e+00 7.52e+02  5.87e+04     0s
   1   5.39213965e+04 -1.10387464e+07  2.11e-01 3.93e-11  4.91e+03     0s
   2   3.16705283e+04 -9.01876930e+05  2.72e-02 2.83e-11  3.78e+02     0s
   3   1.29953141e+04 -1.06793094e+05  1.28e-03 1.46e-11  4.62e+01     0s
   4   2.13351529e+03 -1.09577304e+04  8.41e-05 1.40e-11  5.04e+00     0s
   5   4.00105585e+02 -2.49983072e+03  7.57e-07 2.08e-11  1.12e+00     0s
   6   2.52026410e+02 -5.90208632e+02  1.33e-08 7.28e-12  3.24e-01     0s
   7   1.83374038e+02 -2.41737797e+02  4.34e-09 1.46e-11  1.64e-01     0s
   8   1.41378831e+02  3.49832951e-01  9.84e-10 7.28e-12  5.42e-02     0s
   9   1.17100296e+02  8.68926934e+01  1.58e-10 7.28e-12  1.16e-02     0s
  10   1.13381497e+02  1.06793960e+02  8.44e-11 1.46e-11  2.53e-03     0s
  11   1.09715325e+02  1.08541905e+02  1.72e-11 7.28e-12  4.51e-04     0s
  12   1.09009363e+02  1.08822414e+02  2.86e-11 1.46e-11  7.19e-05     0s
  13   1.08835887e+02  1.08834270e+02  1.55e-10 7.28e-12  6.22e-07     0s
  14   1.08835458e+02  1.08835457e+02  5.44e-12 1.46e-11  6.22e-10     0s
  15   1.08835458e+02  1.08835458e+02  2.49e-12 3.64e-12  6.22e-13     0s

Barrier solved model in 15 iterations and 0.02 seconds (0.01 work units)
Optimal objective 1.08835458e+02

Crossover log...

     135 DPushes remaining with DInf 0.0000000e+00                 0s
       0 DPushes remaining with DInf 0.0000000e+00                 0s

      41 PPushes remaining with PInf 0.0000000e+00                 0s
       0 PPushes remaining with PInf 0.0000000e+00                 0s

  Push phase complete: Pinf 0.0000000e+00, Dinf 1.3344560e-12      0s

Iteration    Objective       Primal Inf.    Dual Inf.      Time
      47    1.0883546e+02   0.000000e+00   0.000000e+00      0s

Use crossover to convert LP symmetric solution to basic solution...
Crossover log...

       0 DPushes remaining with DInf 0.0000000e+00                 0s

      24 PPushes remaining with PInf 0.0000000e+00                 0s
       0 PPushes remaining with PInf 0.0000000e+00                 0s

  Push phase complete: Pinf 0.0000000e+00, Dinf 1.1847121e-12      0s

Iteration    Objective       Primal Inf.    Dual Inf.      Time
      76    1.0883546e+02   0.000000e+00   0.000000e+00      0s

Solved in 76 iterations and 0.03 seconds (0.02 work units)
Optimal objective  1.088354578e+02

Gurobi 9.5.0 (linux64) logging started Wed Nov 15 17:08:37 2023

Set parameter LogFile to value "/lustre1/scratch/348/vsc34888/JointResearch/05.Models/06.Benchmarking/D.Representative_days_based_on_RES_and_Demand/RTS24_mod1_ByStages_nc10/openStarNet_RTS24_mod1_ByStages_nc10.log"
Set parameter Method to value 2
Set parameter MIPFocus to value 1
Set parameter Presolve to value 2
Set parameter RINS to value 100
Set parameter MIPGap to value 0.01
Set parameter Threads to value 36
Set parameter TimeLimit to value 604800
Set parameter IterationLimit to value 760000000
Gurobi Optimizer version 9.5.0 build v9.5.0rc5 (linux64)
Thread count: 36 physical cores, 36 logical processors, using up to 36 threads
Optimize a model with 5276 rows, 3001 columns and 14135 nonzeros
Model fingerprint: 0x8dd58051
Variable types: 2962 continuous, 39 integer (39 binary)
Coefficient statistics:
  Matrix range     [1e-02, 4e+03]
  Objective range  [1e+00, 1e+00]
  Bounds range     [3e-04, 2e+00]
  RHS range        [3e-04, 1e+00]
Presolve removed 2768 rows and 1343 columns
Presolve time: 0.02s
Presolved: 2508 rows, 1658 columns, 8736 nonzeros
Variable types: 1619 continuous, 39 integer (39 binary)
Found heuristic solution: objective 221.2675921
Root relaxation presolved: 2508 rows, 1658 columns, 8736 nonzeros

Root barrier log...

Ordering time: 0.03s

Barrier statistics:
 AA' NZ     : 5.116e+04
 Factor NZ  : 3.878e+05 (roughly 5 MB of memory)
 Factor Ops : 8.830e+07 (less than 1 second per iteration)
 Threads    : 36

                  Objective                Residual
Iter       Primal          Dual         Primal    Dual     Compl     Time
   0   5.29128849e+05 -2.89109522e+07  3.71e+00 4.67e+02  1.45e+04     0s
   1   4.79527586e+04 -6.91204355e+06  2.66e-01 3.76e-11  1.68e+03     0s
   2   1.41517312e+04 -5.56855506e+05  6.39e-03 4.85e-11  1.12e+02     0s
   3   3.07170895e+03 -5.67231476e+04  3.29e-13 8.25e-12  1.15e+01     0s
   4   5.18581717e+02 -5.31598175e+03  4.84e-13 3.64e-12  1.13e+00     0s
   5   3.52345784e+02 -1.97728099e+03  3.71e-13 3.64e-12  4.49e-01     0s
   6   2.43368881e+02 -5.99601107e+02  1.83e-13 1.82e-12  1.63e-01     0s
   7   1.84805919e+02 -2.10640664e+02  9.06e-14 1.82e-12  7.63e-02     0s
   8   1.21798274e+02 -1.28734921e+01  2.03e-13 3.64e-12  2.60e-02     0s
   9   1.04632215e+02  6.02865759e+01  2.07e-13 1.82e-12  8.55e-03     0s
  10   9.80803032e+01  8.51951515e+01  4.38e-13 1.82e-12  2.48e-03     0s
  11   9.29552548e+01  8.84341970e+01  2.38e-12 1.82e-12  8.72e-04     0s
  12   9.17495565e+01  8.98649052e+01  3.71e-12 1.82e-12  3.63e-04     0s
  13   9.10267825e+01  9.02840515e+01  7.39e-12 1.82e-12  1.43e-04     0s
  14   9.07269356e+01  9.04041397e+01  2.88e-11 1.82e-12  6.22e-05     0s
  15   9.05037131e+01  9.04548253e+01  1.98e-11 1.82e-12  9.43e-06     0s
  16   9.04850300e+01  9.04830915e+01  7.46e-12 1.82e-12  3.74e-07     0s
  17   9.04841199e+01  9.04841198e+01  2.00e-12 1.82e-12  1.95e-11     0s

Barrier solved model in 17 iterations and 0.35 seconds (0.09 work units)
Optimal objective 9.04841199e+01


Root relaxation: objective 9.048412e+01, 200 iterations, 0.32 seconds (0.06 work units)

    Nodes    |    Current Node    |     Objective Bounds      |     Work
 Expl Unexpl |  Obj  Depth IntInf | Incumbent    BestBd   Gap | It/Node Time

     0     0   90.48412    0   13  221.26759   90.48412  59.1%     -    0s
H    0     0                     122.1432240   90.48412  25.9%     -    0s
     0     0   97.01982    0   12  122.14322   97.01982  20.6%     -    0s
     0     0   97.69231    0   11  122.14322   97.69231  20.0%     -    0s
     0     0   97.69231    0   11  122.14322   97.69231  20.0%     -    0s
     0     0   98.92085    0   11  122.14322   98.92085  19.0%     -    0s
H    0     0                     109.1088193   98.92085  9.34%     -    0s
     0     0   99.75543    0   12  109.10882   99.75543  8.57%     -    0s
H    0     0                     108.8354578  101.74810  6.51%     -    0s
     0     0  101.98749    0   11  108.83546  101.98749  6.29%     -    0s
     0     0  102.29426    0   11  108.83546  102.29426  6.01%     -    0s
     0     0  103.19395    0   11  108.83546  103.19395  5.18%     -    0s
     0     0  103.63798    0   11  108.83546  103.63798  4.78%     -    0s
     0     0  103.68530    0   11  108.83546  103.68530  4.73%     -    0s
     0     2  103.68530    0   11  108.83546  103.68530  4.73%     -    0s

Cutting planes:
  Gomory: 7
  Implied bound: 8
  MIR: 59

Explored 95 nodes (2805 simplex iterations) in 1.07 seconds (0.60 work units)
Thread count was 36 (of 36 available processors)

Solution count 4: 108.835 109.109 122.143 221.268 

Optimal solution found (tolerance 1.00e-02)
Best objective 1.088354578432e+02, best bound 1.079819702424e+02, gap 0.7842%

Gurobi 9.5.0 (linux64) logging started Wed Nov 15 17:08:39 2023

Set parameter LogFile to value "/lustre1/scratch/348/vsc34888/JointResearch/05.Models/06.Benchmarking/D.Representative_days_based_on_RES_and_Demand/RTS24_mod1_ByStages_nc10/openStarNet_RTS24_mod1_ByStages_nc10.log"
Set parameter Method to value 2
Set parameter MIPFocus to value 1
Set parameter Presolve to value 2
Set parameter RINS to value 100
Set parameter MIPGap to value 0.01
Set parameter Threads to value 36
Set parameter TimeLimit to value 604800
Set parameter IterationLimit to value 760000000
No parameters matching 'relax_integrality' found
Gurobi Optimizer version 9.5.0 build v9.5.0rc5 (linux64)
Thread count: 36 physical cores, 36 logical processors, using up to 36 threads
Optimize a model with 5276 rows, 2962 columns and 12380 nonzeros
Model fingerprint: 0x85db2a08
Coefficient statistics:
  Matrix range     [1e-02, 4e+03]
  Objective range  [1e+00, 1e+00]
  Bounds range     [3e-04, 2e+00]
  RHS range        [3e-04, 3e+01]
Presolve removed 4253 rows and 1453 columns
Presolve time: 0.01s
Presolved: 1023 rows, 1531 columns, 3808 nonzeros

Ordering time: 0.00s

Barrier statistics:
 AA' NZ     : 2.649e+03
 Factor NZ  : 1.100e+04 (roughly 1 MB of memory)
 Factor Ops : 1.650e+05 (less than 1 second per iteration)
 Threads    : 1

                  Objective                Residual
Iter       Primal          Dual         Primal    Dual     Compl     Time
   0   5.70064548e+05 -8.87622616e+07  4.39e+00 7.52e+02  5.91e+04     0s
   1   5.38834525e+04 -1.13126788e+07  2.10e-01 4.02e-11  4.99e+03     0s
   2   3.17173864e+04 -8.87946224e+05  2.76e-02 3.22e-11  3.70e+02     0s
   3   1.27325560e+04 -1.03197923e+05  1.19e-03 2.91e-11  4.44e+01     0s
   4   2.09340440e+03 -1.02869742e+04  8.32e-05 4.63e-11  4.73e+00     0s
   5   3.94378046e+02 -2.49172606e+03  6.80e-07 3.17e-11  1.10e+00     0s
   6   2.44941667e+02 -6.98547396e+02  1.28e-08 9.89e-12  3.61e-01     0s
   7   1.83817360e+02 -2.62230630e+02  4.19e-09 4.89e-12  1.71e-01     0s
   8   1.41701339e+02 -1.06142402e+01  9.17e-10 7.28e-12  5.82e-02     0s
   9   1.17859742e+02  8.42964046e+01  1.54e-10 7.28e-12  1.28e-02     0s
  10   1.13224081e+02  1.06668224e+02  7.22e-11 7.28e-12  2.51e-03     0s
  11   1.09739816e+02  1.08501430e+02  1.55e-11 2.91e-11  4.73e-04     0s
  12   1.09002510e+02  1.08823705e+02  2.47e-11 7.28e-12  6.84e-05     0s
  13   1.08835879e+02  1.08834283e+02  2.27e-10 1.46e-11  6.10e-07     0s
  14   1.08835458e+02  1.08835457e+02  1.72e-11 3.64e-12  6.10e-10     0s
  15   1.08835458e+02  1.08835458e+02  1.66e-11 1.46e-11  6.10e-13     0s

Barrier solved model in 15 iterations and 0.02 seconds (0.01 work units)
Optimal objective 1.08835458e+02

Crossover log...

     136 DPushes remaining with DInf 0.0000000e+00                 0s
       0 DPushes remaining with DInf 0.0000000e+00                 0s

      43 PPushes remaining with PInf 0.0000000e+00                 0s
       0 PPushes remaining with PInf 0.0000000e+00                 0s

  Push phase complete: Pinf 0.0000000e+00, Dinf 9.6621322e-13      0s

Iteration    Objective       Primal Inf.    Dual Inf.      Time
      48    1.0883546e+02   0.000000e+00   0.000000e+00      0s

Use crossover to convert LP symmetric solution to basic solution...
Crossover log...

       0 DPushes remaining with DInf 0.0000000e+00                 0s

      24 PPushes remaining with PInf 0.0000000e+00                 0s
       0 PPushes remaining with PInf 0.0000000e+00                 0s

  Push phase complete: Pinf 0.0000000e+00, Dinf 2.0385924e-12      0s

Iteration    Objective       Primal Inf.    Dual Inf.      Time
      77    1.0883546e+02   0.000000e+00   0.000000e+00      0s

Solved in 77 iterations and 0.03 seconds (0.02 work units)
Optimal objective  1.088354578e+02

Gurobi 9.5.0 (linux64) logging started Thu Nov 16 15:41:33 2023

Set parameter LogFile to value "/lustre1/scratch/348/vsc34888/JointResearch/05.Models/06.Benchmarking/D.Representative_days_based_on_RES_and_Demand/RTS24_mod1_ByStages_nc10/openStarNet_RTS24_mod1_ByStages_nc10.log"
Set parameter Method to value 2
Set parameter MIPFocus to value 1
Set parameter Presolve to value 2
Set parameter RINS to value 100
Set parameter MIPGap to value 0.01
Set parameter Threads to value 36
Set parameter TimeLimit to value 604800
Set parameter IterationLimit to value 760000000
Gurobi Optimizer version 9.5.0 build v9.5.0rc5 (linux64)
Thread count: 36 physical cores, 36 logical processors, using up to 36 threads
Optimize a model with 6508 rows, 3329 columns and 18632 nonzeros
Model fingerprint: 0xf03d024c
Variable types: 3259 continuous, 70 integer (70 binary)
Coefficient statistics:
  Matrix range     [1e-02, 4e+03]
  Objective range  [1e+00, 1e+00]
  Bounds range     [3e-04, 2e+00]
  RHS range        [3e-04, 1e+00]
Presolve removed 2636 rows and 1299 columns
Presolve time: 0.02s
Presolved: 3872 rows, 2030 columns, 13510 nonzeros
Variable types: 1960 continuous, 70 integer (70 binary)
Found heuristic solution: objective 315.7692809
Root relaxation presolved: 3872 rows, 2030 columns, 13510 nonzeros

Root barrier log...

Ordering time: 0.05s

Barrier statistics:
 AA' NZ     : 9.815e+04
 Factor NZ  : 8.036e+05 (roughly 9 MB of memory)
 Factor Ops : 2.640e+08 (less than 1 second per iteration)
 Threads    : 36

                  Objective                Residual
Iter       Primal          Dual         Primal    Dual     Compl     Time
   0   4.19304327e+05 -1.91235619e+07  7.31e+00 4.00e+02  7.28e+03     0s
   1   3.59244518e+04 -5.38249031e+06  3.92e-01 2.91e-11  8.58e+02     0s
   2   1.29178263e+04 -5.10094114e+05  8.79e-03 3.11e-11  7.21e+01     0s
   3   1.85742700e+03 -2.51299259e+04  1.92e-04 6.92e-12  3.70e+00     0s
   4   4.85908779e+02 -3.94797945e+03  2.91e-08 2.73e-12  6.08e-01     0s
   5   3.52675696e+02 -1.26071293e+03  7.18e-09 1.82e-12  2.21e-01     0s
   6   2.55945014e+02 -4.63931796e+02  2.54e-09 9.09e-13  9.87e-02     0s
   7   1.90703308e+02 -9.21911396e+01  1.37e-09 1.82e-12  3.88e-02     0s
   8   1.27119354e+02  3.68191878e+01  2.40e-10 1.82e-12  1.24e-02     0s
   9   1.12089868e+02  9.06631341e+01  8.76e-11 1.82e-12  2.94e-03     0s
  10   1.07175487e+02  9.92406333e+01  4.05e-11 1.82e-12  1.09e-03     0s
  11   1.04616212e+02  1.02232038e+02  1.68e-11 2.73e-12  3.27e-04     0s
  12   1.03859793e+02  1.02663702e+02  1.49e-11 1.82e-12  1.64e-04     0s
  13   1.03163228e+02  1.02867562e+02  4.15e-11 1.82e-12  4.05e-05     0s
  14   1.02996952e+02  1.02977683e+02  4.28e-12 1.82e-12  2.64e-06     0s
  15   1.02992010e+02  1.02990906e+02  3.01e-12 1.82e-12  1.51e-07     0s
  16   1.02991371e+02  1.02991364e+02  2.42e-12 1.82e-12  9.24e-10     0s
  17   1.02991369e+02  1.02991369e+02  7.74e-12 1.82e-12  3.10e-12     0s

Barrier solved model in 17 iterations and 0.43 seconds (0.15 work units)
Optimal objective 1.02991369e+02


Root relaxation: objective 1.029914e+02, 331 iterations, 0.39 seconds (0.12 work units)

    Nodes    |    Current Node    |     Objective Bounds      |     Work
 Expl Unexpl |  Obj  Depth IntInf | Incumbent    BestBd   Gap | It/Node Time

     0     0  102.99137    0   19  315.76928  102.99137  67.4%     -    0s
H    0     0                     225.5189161  102.99137  54.3%     -    0s
     0     0  105.04902    0   24  225.51892  105.04902  53.4%     -    0s
H    0     0                     213.4334179  106.17908  50.3%     -    0s
     0     0  106.17908    0   23  213.43342  106.17908  50.3%     -    0s
     0     0  106.37901    0   24  213.43342  106.37901  50.2%     -    0s
     0     0  106.38304    0   24  213.43342  106.38304  50.2%     -    0s
     0     0  106.38304    0   24  213.43342  106.38304  50.2%     -    0s
     0     0  107.31289    0   24  213.43342  107.31289  49.7%     -    0s
H    0     0                     209.3053484  107.31289  48.7%     -    0s
H    0     0                     199.8250723  107.73458  46.1%     -    0s
     0     0  109.31331    0   24  199.82507  109.31331  45.3%     -    0s
     0     0  109.33642    0   25  199.82507  109.33642  45.3%     -    0s
     0     0  109.46660    0   25  199.82507  109.46660  45.2%     -    0s
H    0     0                     195.7495704  110.16194  43.7%     -    0s
     0     0  110.16194    0   25  195.74957  110.16194  43.7%     -    0s
H    0     0                     194.1707414  110.16194  43.3%     -    0s
     0     0  110.16693    0   25  194.17074  110.16693  43.3%     -    0s
     0     0  110.43931    0   26  194.17074  110.43931  43.1%     -    0s
     0     0  110.43931    0   25  194.17074  110.43931  43.1%     -    0s
     0     0  111.01432    0   24  194.17074  111.01432  42.8%     -    0s
     0     0  111.26683    0   26  194.17074  111.26683  42.7%     -    1s
     0     0  111.51903    0   27  194.17074  111.51903  42.6%     -    1s
     0     0  111.51903    0   27  194.17074  111.51903  42.6%     -    1s
H    0     0                     187.7901975  111.51903  40.6%     -    1s
     0     0  111.94007    0   23  187.79020  111.94007  40.4%     -    1s
H    0     0                     153.0369270  111.94007  26.9%     -    1s
H    0     0                     144.4612390  111.94007  22.5%     -    3s
     0     2  111.94007    0   23  144.46124  111.94007  22.5%     -    3s
H   28    32                     144.0610780  111.94007  22.3%  92.2    3s
H   29    32                     133.7623256  111.94007  16.3%  94.3    3s
H   63    98                     124.4911065  111.96032  10.1%  86.6    6s
H   65    98                     124.3897327  111.99101  10.0%  92.3    6s
H   80    98                     122.4689616  111.99101  8.56%  92.0    6s
  1300    38  118.39830    9   18  122.46896  115.53441  5.66%  51.6   10s

Cutting planes:
  Gomory: 6
  Implied bound: 4
  MIR: 265

Explored 1650 nodes (84642 simplex iterations) in 11.12 seconds (14.04 work units)
Thread count was 36 (of 36 available processors)

Solution count 10: 122.469 124.39 124.491 ... 195.75

Optimal solution found (tolerance 1.00e-02)
Best objective 1.224689616302e+02, best bound 1.224689616302e+02, gap 0.0000%

Gurobi 9.5.0 (linux64) logging started Thu Nov 16 15:41:44 2023

Set parameter LogFile to value "/lustre1/scratch/348/vsc34888/JointResearch/05.Models/06.Benchmarking/D.Representative_days_based_on_RES_and_Demand/RTS24_mod1_ByStages_nc10/openStarNet_RTS24_mod1_ByStages_nc10.log"
Set parameter Method to value 2
Set parameter MIPFocus to value 1
Set parameter Presolve to value 2
Set parameter RINS to value 100
Set parameter MIPGap to value 0.01
Set parameter Threads to value 36
Set parameter TimeLimit to value 604800
Set parameter IterationLimit to value 760000000
No parameters matching 'relax_integrality' found
Gurobi Optimizer version 9.5.0 build v9.5.0rc5 (linux64)
Thread count: 36 physical cores, 36 logical processors, using up to 36 threads
Optimize a model with 6508 rows, 3259 columns and 15482 nonzeros
Model fingerprint: 0xe2e573b2
Coefficient statistics:
  Matrix range     [1e-02, 4e+03]
  Objective range  [1e+00, 1e+00]
  Bounds range     [3e-04, 2e+00]
  RHS range        [3e-04, 5e+01]
Presolve removed 5545 rows and 1810 columns
Presolve time: 0.01s
Presolved: 963 rows, 1471 columns, 3495 nonzeros

Ordering time: 0.00s

Barrier statistics:
 AA' NZ     : 2.613e+03
 Factor NZ  : 1.170e+04 (roughly 1 MB of memory)
 Factor Ops : 1.831e+05 (less than 1 second per iteration)
 Threads    : 1

                  Objective                Residual
Iter       Primal          Dual         Primal    Dual     Compl     Time
   0   4.77436141e+05 -1.30849645e+07  4.56e+00 3.76e+02  9.55e+03     0s
   1   6.26820770e+04 -1.95732209e+06  3.72e-01 5.46e-12  9.61e+02     0s
   2   1.86757434e+04 -2.58900083e+05  6.15e-03 6.12e-12  1.05e+02     0s
   3   3.20937616e+03 -2.38563239e+04  8.24e-08 1.03e-11  1.02e+01     0s
   4   4.58394836e+02 -2.70309450e+03  2.39e-10 1.82e-12  1.19e+00     0s
   5   3.03771300e+02 -7.81244467e+02  1.40e-11 1.82e-12  4.09e-01     0s
   6   1.87892265e+02 -1.24787430e+02  1.45e-12 1.82e-12  1.18e-01     0s
   7   1.54459554e+02  3.38085408e+01  6.11e-13 3.64e-12  4.54e-02     0s
   8   1.36634342e+02  8.41639995e+01  2.52e-13 9.09e-13  1.98e-02     0s
   9   1.24432342e+02  1.12597959e+02  9.48e-14 1.82e-12  4.46e-03     0s
  10   1.22592151e+02  1.21868511e+02  2.30e-13 1.82e-12  2.72e-04     0s
  11   1.22472963e+02  1.22464539e+02  1.45e-13 1.82e-12  3.17e-06     0s
  12   1.22468962e+02  1.22468962e+02  6.57e-14 1.82e-12  1.21e-11     0s
  13   1.22468962e+02  1.22468962e+02  3.39e-14 1.82e-12  1.21e-14     0s

Barrier solved model in 13 iterations and 0.02 seconds (0.01 work units)
Optimal objective 1.22468962e+02

Crossover log...

     137 DPushes remaining with DInf 0.0000000e+00                 0s
       0 DPushes remaining with DInf 0.0000000e+00                 0s

      38 PPushes remaining with PInf 0.0000000e+00                 0s
       0 PPushes remaining with PInf 0.0000000e+00                 0s

  Push phase complete: Pinf 0.0000000e+00, Dinf 1.6297940e-12      0s

Iteration    Objective       Primal Inf.    Dual Inf.      Time
      45    1.2246896e+02   0.000000e+00   0.000000e+00      0s

Use crossover to convert LP symmetric solution to basic solution...
Crossover log...

      26 PPushes remaining with PInf 0.0000000e+00                 0s
       0 PPushes remaining with PInf 0.0000000e+00                 0s

  Push phase complete: Pinf 0.0000000e+00, Dinf 1.6357667e-12      0s

Iteration    Objective       Primal Inf.    Dual Inf.      Time
      74    1.2246896e+02   0.000000e+00   0.000000e+00      0s

Solved in 74 iterations and 0.03 seconds (0.02 work units)
Optimal objective  1.224689616e+02
